100
1000
376
374
373
360
358
351
348
345
344
343
332
328
327
327
323
317
317
315
313
308
307
305
297
297
291
289
285
284
277
276
263
262
261
261
258
258
256
251
244
242
241
235
235
235
235
234
230
227
226
225
222
218
218
208
203
202
184
178
177
176
169
165
161
159
154
142
137
134
133
132
127
125
123
123
121
116
111
109
109
103
102
93
81
79
75
71
71
57
57
50
46
45
38
37
28
27
27
22
22
22
